2 30
761 662 
0 21 79 98 97 54 16 2
1 58 19 74 54 56 18 1
2 23 33 24 4 99 21 1
3 67 90 44 45 75 67 2
4 29 19 5 70 24 93 1
5 36 49 45 95 35 96 1
6 1 4 57 31 9 1 1
7 55 59 87 97 89 53 1
8 46 88 6 55 11 37 1
9 6 81 66 28 10 63 1
10 30 27 23 65 6 62 1
11 86 98 59 9 56 94 2
12 70 27 31 70 60 18 1
13 49 83 90 22 94 73 1
14 94 84 59 10 75 39 1
15 23 52 68 74 78 45 1
16 33 20 78 7 72 2 1
17 1 47 38 42 35 11 2
18 30 92 66 7 85 79 1
19 85 41 73 8 24 86 1
20 21 96 17 3 85 86 2
21 58 15 11 73 97 64 1
22 55 7 8 58 23 34 2
23 15 22 8 4 32 61 1
24 92 16 37 34 7 95 1
25 50 59 22 74 39 41 2
26 55 69 84 12 59 99 1
27 63 19 23 57 69 53 1
28 41 29 54 51 13 9 2
29 28 98 44 69 66 63 2
